The data in ".dzn" format would look like this:

```
inputone = array2d(1..3, 1..3, [0.1, 0.1, 0.2, 0.5, 0.1, 0.1, 0.5, 0.2, 0.2]);
manpowerone = [0.6, 0.3, 0.2];
inputtwo = array2d(1..3, 1..3, [0.0, 0.1, 0.2, 0.7, 0.1, 0.1, 0.9, 0.2, 0.2]);
manpowertwo = [0.4, 0.2, 0.1];
stock = [150, 80, 100];
capacity = [300, 350, 280];
manpower_limit = 470000000.0;
demand = [60000000.0, 60000000.0, 30000000.0];
```